Solver command line: ['/opt/gurobi911/linux64/bin/gurobi.sh']


--------------------------------------------
Warning: your license will expire in 9 days
--------------------------------------------

Academic license - for non-commercial use only - expires 2021-03-30
Using license file /home/cie/gurobi.lic
Read LP format model from file /tmp/tmp5fjs22gv.pyomo.lp
Reading time = 1.98 seconds
x1051207: 1051205 rows, 700807 columns, 2760487 nonzeros
Read MIP start from file /tmp/tmph9j0h7ws.gurobi.mst
Changed value of parameter timelimit to 200000.0
   Prev: inf  Min: 0.0  Max: inf  Default: inf
Changed value of parameter mipgap to 0.002
   Prev: 0.0001  Min: 0.0  Max: inf  Default: 0.0001
Gurobi Optimizer version 9.1.1 build v9.1.1rc0 (linux64)
Thread count: 16 physical cores, 32 logical processors, using up to 32 threads
Optimize a model with 1051205 rows, 700807 columns and 2760487 nonzeros
Model fingerprint: 0x1bf7b988
Variable types: 525605 continuous, 175202 integer (0 binary)
Coefficient statistics:
  Matrix range     [1e-03, 1e+02]
  Objective range  [3e-02, 5e+04]
  Bounds range     [2e+00, 1e+03]
  RHS range        [1e+00, 6e+02]

Warning: Completing partial solution with 175200 unfixed non-continuous variables out of 175202
User MIP start produced solution with objective 591000 (1193.18s)
User MIP start produced solution with objective 590957 (2863.32s)
User MIP start produced solution with objective 590903 (2876.41s)
User MIP start produced solution with objective 590898 (2945.50s)
User MIP start produced solution with objective 590898 (2953.31s)
Loaded user MIP start with objective 590898
Processed MIP start in 2984.90 seconds

Presolve removed 14 rows and 81413 columns
Presolve time: 1.94s
Presolved: 1051191 rows, 619394 columns, 2679081 nonzeros
Variable types: 444192 continuous, 175202 integer (0 binary)

Deterministic concurrent LP optimizer: primal simplex, dual simplex, and barrier
Showing barrier log only...

Root barrier log...

Ordering time: 0.07s

Barrier statistics:
 Dense cols : 4
 AA' NZ     : 1.972e+06
 Factor NZ  : 7.410e+06 (roughly 500 MBytes of memory)
 Factor Ops : 1.125e+08 (less than 1 second per iteration)
 Threads    : 14

                  Objective                Residual
Iter       Primal          Dual         Primal    Dual     Compl     Time
   0   4.87243258e+08 -3.72437323e+10  1.81e+06 7.72e+01  2.59e+06  2989s
   1   4.79608082e+08 -4.51799138e+10  1.77e+06 8.95e+02  2.25e+06  2989s
   2   2.80819806e+08 -5.06313982e+10  9.56e+05 1.05e+01  1.13e+06  2990s
   3   1.84551318e+08 -5.05703581e+10  7.38e+05 1.40e-06  9.59e+05  2990s
   4   7.10788947e+06 -4.46278193e+10  1.34e+04 1.74e-06  4.56e+04  2991s
   5   3.79648099e+06 -7.88150681e+09  2.23e+03 3.96e-12  6.43e+03  2991s
   6   3.29517999e+06 -1.89723360e+09  7.30e+02 2.12e-07  1.46e+03  2992s
   7   2.95434805e+06 -4.72162468e+08  2.31e+00 1.21e-07  3.19e+02  2992s
   8   2.86550087e+06 -2.48453368e+07  7.75e-07 2.18e-08  1.86e+01  2992s
   9   1.91720857e+06 -9.70301013e+06  3.22e-09 6.22e-09  7.80e+00  2993s
  10   1.34365274e+06 -2.04793025e+06  4.63e-10 7.39e-10  2.28e+00  2993s
  11   9.60178306e+05 -1.05184562e+06  8.11e-11 9.73e-10  1.35e+00  2993s
  12   9.01484137e+05 -1.06057151e+06  7.93e-11 5.55e-10  1.32e+00  2994s
  13   8.45712872e+05 -3.75027168e+05  5.29e-11 6.73e-10  8.20e-01  2994s
  14   7.06791974e+05 -1.09625228e+04  2.71e-11 2.62e-10  4.82e-01  2994s
  15   6.69494583e+05  1.47495489e+05  1.88e-11 1.02e-14  3.51e-01  2995s
  16   6.54053819e+05  2.24336670e+05  1.58e-11 1.16e-10  2.89e-01  2995s
  17   6.41265212e+05  3.03666944e+05  1.35e-11 7.11e-15  2.27e-01  2995s
  18   6.25021433e+05  3.53331680e+05  1.01e-11 5.77e-15  1.82e-01  2996s
  19   6.14640694e+05  4.53672149e+05  3.20e-11 1.47e-14  1.08e-01  2996s
  20   6.02126826e+05  4.98499195e+05  7.58e-11 1.42e-10  6.96e-02  2997s
  21   5.94726583e+05  5.33416911e+05  1.27e-10 1.82e-10  4.12e-02  2997s
  22   5.91809294e+05  5.48829161e+05  7.74e-11 8.37e-11  2.89e-02  2998s
  23   5.90214710e+05  5.58262071e+05  1.67e-10 2.84e-10  2.15e-02  2998s
  24   5.89360238e+05  5.66229965e+05  1.47e-10 2.26e-10  1.55e-02  2998s
  25   5.88734802e+05  5.73344738e+05  1.02e-10 9.46e-11  1.03e-02  2998s
  26   5.88116881e+05  5.78967900e+05  9.94e-11 3.38e-10  6.14e-03  2999s
  27   5.87581957e+05  5.83340795e+05  1.27e-10 2.87e-10  2.85e-03  2999s
  28   5.87419736e+05  5.85511057e+05  9.46e-11 1.76e-09  1.28e-03  3000s
  29   5.87308868e+05  5.86775836e+05  6.51e-11 1.06e-10  3.58e-04  3000s
  30   5.87258561e+05  5.87185256e+05  1.19e-10 1.13e-09  4.92e-05  3000s
  31   5.87239630e+05  5.87222613e+05  3.64e-10 5.78e-10  1.14e-05  3001s
  32   5.87236106e+05  5.87232115e+05  9.21e-11 3.24e-10  2.68e-06  3001s
  33   5.87234888e+05  5.87234674e+05  2.05e-12 3.69e-10  1.44e-07  3002s
  34   5.87234875e+05  5.87234744e+05  1.23e-06 1.33e-10  8.81e-08  3002s
  35   5.87234873e+05  5.87234754e+05  1.12e-06 5.64e-11  7.97e-08  3002s
  36   5.87234873e+05  5.87234754e+05  1.12e-06 1.15e-10  7.97e-08  3003s
  37   5.87234873e+05  5.87234754e+05  2.10e-06 1.06e-10  7.97e-08  3003s
  38   5.87234873e+05  5.87234754e+05  2.10e-06 3.64e-11  7.97e-08  3004s
  39   5.87234873e+05  5.87234754e+05  2.10e-06 5.46e-12  7.97e-08  3005s
  40   5.87234873e+05  5.87234754e+05  2.10e-06 3.82e-11  7.97e-08  3006s
  41   5.87234873e+05  5.87234754e+05  2.10e-06 1.36e-12  7.97e-08  3006s
  42   5.87234873e+05  5.87234754e+05  2.10e-06 1.42e-12  7.97e-08  3007s
  43   5.87234873e+05  5.87234754e+05  2.10e-06 5.78e-14  7.97e-08  3008s
  44   5.87234873e+05  5.87234754e+05  2.10e-06 1.82e-12  7.97e-08  3009s

Barrier performed 44 iterations in 3008.53 seconds
Sub-optimal termination - objective 5.87234875e+05


Root crossover log...

    2897 DPushes remaining with DInf 0.0000000e+00              3009s
    1758 DPushes remaining with DInf 0.0000000e+00              3010s
       0 DPushes remaining with DInf 0.0000000e+00              3012s

  108708 PPushes remaining with PInf 2.2220805e-05              3013s
   99518 PPushes remaining with PInf 0.0000000e+00              3026s
   94952 PPushes remaining with PInf 0.0000000e+00              3030s
   74168 PPushes remaining with PInf 0.0000000e+00              3035s
   18971 PPushes remaining with PInf 0.0000000e+00              3042s
      13 PPushes remaining with PInf 0.0000000e+00              3046s
       0 PPushes remaining with PInf 0.0000000e+00              3047s

  Push phase complete: Pinf 0.0000000e+00, Dinf 2.2983508e-09   3047s


Root simplex log...

Iteration    Objective       Primal Inf.    Dual Inf.      Time
  111311    5.8723484e+05   0.000000e+00   0.000000e+00   3048s
  111311    5.8723484e+05   0.000000e+00   0.000000e+00   3050s
Concurrent spin time: 13.51s (can be avoided by choosing Method=3)

Solved with barrier

Root relaxation: objective 5.872348e+05, 111311 iterations, 76.33 seconds

    Nodes    |    Current Node    |     Objective Bounds      |     Work
 Expl Unexpl |  Obj  Depth IntInf | Incumbent    BestBd   Gap | It/Node Time

     0     0 587234.845    0 63831 590898.057 587234.845  0.62%     - 3618s
H    0     0                    590898.02788 587234.845  0.62%     - 3644s
     0     0 587384.824    0 35503 590898.028 587384.824  0.59%     - 4832s
     0     0 587438.222    0 63961 590898.028 587438.222  0.59%     - 5853s
     0     0 587440.940    0 34715 590898.028 587440.940  0.59%     - 6033s
     0     0 587441.089    0 34743 590898.028 587441.089  0.59%     - 6054s
     0     0 587441.186    0 34742 590898.028 587441.186  0.59%     - 6062s
     0     0 587441.563    0 34743 590898.028 587441.563  0.58%     - 6068s
     0     0 587441.664    0 34743 590898.028 587441.664  0.58%     - 6072s
     0     0 587441.760    0 34743 590898.028 587441.760  0.58%     - 6079s
     0     0 587442.137    0 34744 590898.028 587442.137  0.58%     - 6086s
     0     0 587442.321    0 34745 590898.028 587442.321  0.58%     - 6093s
     0     0 587442.518    0 34743 590898.028 587442.518  0.58%     - 6102s
     0     0 587442.895    0 34744 590898.028 587442.895  0.58%     - 6109s
     0     0 587443.080    0 34744 590898.028 587443.080  0.58%     - 6116s
     0     0 587443.176    0 34745 590898.028 587443.176  0.58%     - 6123s
     0     0 587443.370    0 34745 590898.028 587443.370  0.58%     - 6130s
     0     0 587443.466    0 34745 590898.028 587443.466  0.58%     - 6137s
     0     0 587443.840    0 34746 590898.028 587443.840  0.58%     - 6144s
     0     0 587443.936    0 34747 590898.028 587443.936  0.58%     - 6151s
     0     0 587444.031    0 34748 590898.028 587444.031  0.58%     - 6159s
     0     0 587444.128    0 34749 590898.028 587444.128  0.58%     - 6166s
     0     0 587444.229    0 34749 590898.028 587444.229  0.58%     - 6173s
     0     0 587444.603    0 34750 590898.028 587444.603  0.58%     - 6180s
     0     0 587444.977    0 34751 590898.028 587444.977  0.58%     - 6187s
     0     0 587445.073    0 34752 590898.028 587445.073  0.58%     - 6194s
     0     0 587445.172    0 34753 590898.028 587445.172  0.58%     - 6201s
     0     0 587445.548    0 34753 590898.028 587445.548  0.58%     - 6209s
     0     0 587445.550    0 34753 590898.028 587445.550  0.58%     - 6214s
     0     0 587774.466    0 34936 590898.028 587774.466  0.53%     - 6705s
     0     0 587790.954    0 35135 590898.028 587790.954  0.53%     - 6966s
     0     0 587791.190    0 35154 590898.028 587791.190  0.53%     - 6977s
     0     0 587791.287    0 35155 590898.028 587791.287  0.53%     - 6987s
     0     0 587902.991    0 34719 590898.028 587902.991  0.51%     - 7772s
     0     0 587918.209    0 34788 590898.028 587918.209  0.50%     - 9103s
     0     0 587918.272    0 34825 590898.028 587918.272  0.50%     - 9119s
     0     0 587942.307    0 67961 590898.028 587942.307  0.50%     - 9741s
     0     0 587946.603    0 35073 590898.028 587946.603  0.50%     - 10467s
     0     0 587946.882    0 35094 590898.028 587946.882  0.50%     - 10494s
     0     0 587947.303    0 35102 590898.028 587947.303  0.50%     - 10511s
     0     0 587947.319    0 35104 590898.028 587947.319  0.50%     - 10521s
     0     0 587951.475    0 35172 590898.028 587951.475  0.50%     - 10622s
     0     0 587952.260    0 35293 590898.028 587952.260  0.50%     - 11921s
     0     0 587952.398    0 35284 590898.028 587952.398  0.50%     - 11947s
     0     0 587954.384    0 35288 590898.028 587954.384  0.50%     - 12018s
     0     0 587955.266    0 35337 590898.028 587955.266  0.50%     - 12219s
     0     0 587955.608    0 35338 590898.028 587955.608  0.50%     - 12243s
     0     0 587955.710    0 35341 590898.028 587955.710  0.50%     - 12257s
     0     0 587957.384    0 35367 590898.028 587957.384  0.50%     - 12326s
     0     0 587957.862    0 35377 590898.028 587957.862  0.50%     - 12353s
     0     0 587958.262    0 35380 590898.028 587958.262  0.50%     - 12376s
     0     0 587958.596    0 35378 590898.028 587958.596  0.50%     - 12391s
     0     0 587959.531    0 35381 590898.028 587959.531  0.50%     - 12413s
     0     0 587959.990    0 35376 590898.028 587959.990  0.50%     - 12427s
     0     0 587960.283    0 35376 590898.028 587960.283  0.50%     - 12436s
     0     0 587960.604    0 35374 590898.028 587960.604  0.50%     - 12456s
     0     0 587961.001    0 35364 590898.028 587961.001  0.50%     - 12473s
     0     0 587961.319    0 35373 590898.028 587961.319  0.50%     - 12499s
     0     0 587961.479    0 35375 590898.028 587961.479  0.50%     - 12515s
     0     0 587963.609    0 35389 590898.028 587963.609  0.50%     - 12588s
     0     0 587963.756    0 35415 590898.028 587963.756  0.50%     - 12838s
     0     0 587964.724    0 35432 590898.028 587964.724  0.50%     - 12888s
     0     0 587965.814    0 35423 590898.028 587965.814  0.50%     - 12925s
     0     0 587966.033    0 35413 590898.028 587966.033  0.50%     - 12949s
     0     0 587966.132    0 35409 590898.028 587966.132  0.50%     - 12967s
     0     0 587971.688    0 35467 590898.028 587971.688  0.50%     - 13102s
     0     0 587972.799    0 35471 590898.028 587972.799  0.50%     - 13174s
     0     0 587973.132    0 35481 590898.028 587973.132  0.49%     - 13202s
     0     0 587973.168    0 35491 590898.028 587973.168  0.49%     - 13211s
     0     0 587974.606    0 35513 590898.028 587974.606  0.49%     - 13260s
     0     0 587974.954    0 35518 590898.028 587974.954  0.49%     - 13492s
     0     0 587974.978    0 35527 590898.028 587974.978  0.49%     - 13512s
     0     0 587975.832    0 35569 590898.028 587975.832  0.49%     - 13578s
     0     0 587976.816    0 35563 590898.028 587976.816  0.49%     - 13626s
     0     0 587976.882    0 35570 590898.028 587976.882  0.49%     - 13645s
     0     0 587977.580    0 35626 590898.028 587977.580  0.49%     - 13690s
     0     0 587979.189    0 35659 590898.028 587979.189  0.49%     - 13941s
     0     2 587979.189    0 35659 590898.028 587979.189  0.49%     - 15422s
     1     2     cutoff    1      590898.028 587979.207  0.49% 396970 24815s
     3     4 589684.919    2 9291 590898.028 589684.851  0.21% 139658 24822s
     5     8 589691.228    3 9244 590898.028 589685.376  0.21% 84311 24882s
     9    16 589693.307    4 9260 590898.028 589690.841  0.20% 48092 25021s
    17    32 589694.585    5 9262 590898.028 589693.641  0.20% 26915 25380s
    33    48 589695.414    6 9283 590898.028 589694.368  0.20% 15104 25394s
H   45    48                    590897.85317 589694.542  0.20% 11100 25394s
H   47    48                    590897.57573 589694.542  0.20% 10628 25394s
    49    64 589695.824    6 9284 590897.576 589694.542  0.20% 10199 25401s
    65    80 589695.414    7 9283 590897.576 589694.629  0.20%  7698 25406s
    81    96 589695.548    8 9282 590897.576 589694.629  0.20%  6180 25417s
    97   120 589695.553    9 9281 590897.576 589694.629  0.20%  5167 25426s
   121   152 589695.733   10 9279 590897.576 589694.629  0.20%  4149 27115s
H  122   152                    590860.52953 589694.629  0.20%  4115 27115s
H  124   152                    590848.38509 589694.629  0.20%  4049 27115s
H  128   152                    590840.09707 589694.629  0.19%  3924 27115s
H  142   152                    590835.82463 589694.629  0.19%  3538 27115s

Cutting planes:
  MIR: 78863
  StrongCG: 1

Explored 153 nodes (926817 simplex iterations) in 27115.58 seconds
Thread count was 32 (of 32 available processors)

Solution count 10: 590836 590840 590848 ... 591000

Optimal solution found (tolerance 2.00e-03)
Warning: max constraint violation (7.7288e-06) exceeds tolerance
Best objective 5.908358246326e+05, best bound 5.896946292226e+05, gap 0.1931%

